50
16574

218 919
855 500
382 569
297 211
255 571
112 378
636 698
708 524
637 664
266 986
732 14
849 952
944 692
992 421
155 128
54 429
625 881
554 744
310 968
185 608
969 312
848 394
190 481
816 209
813 563
274 364
967 302
49 578
152 884
867 266
726 657
244 577
454 738
210 279
987 43
666 365
932 575
537 651
888 917
443 114
841 475
289 716
172 535
720 264
990 568
101 730
341 969
692 936
6 857
95 893
